3155.53 0
0 57 40 38 43 44 66 74 65 71 73 133 129 0
0 90 88 75 93 95 96 94 0
0 63 56 54 62 55 60 0
0 25 24 23 30 32 31 26 28 20 0
0 51 46 41 45 42 48 50 49 47 39 58 0
0 137 80 79 89 148 143 138 139 149 0
0 64 134 118 121 117 122 116 128 126 131 130 0
0 76 85 77 78 83 87 86 91 81 82 84 92 144 145 0
0 18 21 22 35 19 33 27 0
0 107 100 97 108 101 99 103 105 112 0
0 61 136 132 125 120 127 123 115 135 0
0 53 59 52 0
0 36 34 37 29 119 124 113 114 67 72 70 68 69 0
0 109 98 104 15 8 11 12 16 2 14 1 6 13 150 102 0
0 106 111 110 7 4 10 3 9 17 5 141 140 147 142 146 0